CR = {CR0, CR1, CR2};

ASSET = {Tornado_ECR, RQ_9, F_35};

INTELL = {EO, IR, MTI, SAR, FMV, SIGINT, ELINT};

NAI = {'6012915227253638', '6071333630115474', '6012921727253481'};

BASE = {'61042497281418'};

crl = [CR0, CR1, CR2];

asset_list = [Tornado_ECR, RQ_9, F_35];

nai_list = ['6012915227253638', '6071333630115474', '6012921727253481'];

base_list = ['61042497281418'];

required_int = [EO, MTI, MTI];

priority = [1, 1, 1];

location = ['6012915227253638', '6071333630115474', '6012921727253481'];

location_int = [1, 2, 3];

required_start_time = [900, 900, 900];

required_duration = [30, 30, 30];

ops_start_time = [900, 900, 900];

ops_duration = [30, 30, 30];

sensor = [| 1, 1, 1
| 1, 1, 1
| 0, 0, 0
| 0, 0, 1
| 0, 0, 0
| 0, 0, 0
| 0, 0, 0|];

capacity = [1440, 1440, 1440];

on_station = [0, 0, 0];

home = ['61042497281418', '61042497281418', '61042497281418'];

home_int = [|1
|1
|1
|];

cost = [|0, 33, 0, 22, 
|33, 0, 33, 22, 
|0, 33, 0, 22, 
|22, 22, 22, 0|];

